experiment/data/hgs-res/Vrp-Set-A-n45/Vrp-Set-A-n45-hgs/1.hgs1.vrp
NAME : 1
COMMENT : CVRP Instance
TYPE : CVRP
DIMENSION : 45
EDGE_WEIGHT_TYPE : EUC_2D
CAPACITY : 100
NODE_COORD_SECTION
1	61.0	99.0
2	95.0	7.0
3	45.0	87.0
4	15.0	47.0
5	39.0	75.0
6	55.0	23.0
7	29.0	71.0
8	87.0	79.0
9	75.0	63.0
10	65.0	61.0
11	73.0	35.0
12	17.0	35.0
13	39.0	99.0
14	75.0	77.0
15	49.0	37.0
16	85.0	31.0
17	89.0	71.0
18	89.0	43.0
19	79.0	81.0
20	45.0	5.0
21	93.0	69.0
22	49.0	69.0
23	63.0	25.0
24	93.0	33.0
25	39.0	45.0
26	89.0	33.0
27	47.0	77.0
28	29.0	19.0
29	13.0	65.0
30	33.0	9.0
31	63.0	9.0
32	41.0	13.0
33	67.0	75.0
34	41.0	27.0
35	49.0	77.0
36	57.0	81.0
37	45.0	5.0
38	83.0	7.0
39	81.0	61.0
40	57.0	81.0
41	93.0	89.0
42	17.0	13.0
43	89.0	27.0
44	7.0	25.0
45	35.0	35.0
DEMAND_SECTION
1	0
2	14
3	1
4	16
5	23
6	12
7	6
8	5
9	1
10	13
11	20
12	14
13	18
14	7
15	8
16	21
17	8
18	24
19	20
20	19
21	13
22	3
23	26
24	17
25	22
26	8
27	16
28	20
29	12
30	22
31	20
32	12
33	14
34	25
35	17
36	19
37	20
38	15
39	2
40	9
41	10
42	6
43	11
44	21
45	24
DEPOT_SECTION
1
-1
EOF
