experiment/data/hgs-res/Vrp-Set-A-n45/Vrp-Set-A-n45-hgs/1.hgs1.tour
Route #1: 12 4 26 35 39
Route #2: 21 27 41 43 11 3 28 6 2
Route #3: 34 24 44 14 9 32
Route #4: 31 36 19 29 33
Route #5: 8 42 1 37 30 5 22
Route #6: 13 38 17 23 25 15 10
Route #7: 18 7 16 20 40
Cost 1146.77
